%BLOCK LATTICE_CART
4.641585 0 0
0 4.641585 0
0 0 4.641585
%ENDBLOCK LATTICE_CART

#VARVOL=100 

%BLOCK POSITIONS_FRAC
Li 0.0 0.0 0.0 # Li1 % NUM=1
Li 0.0 0.0 0.0 # Li2 % NUM=1
Li 0.0 0.0 0.0 # Li3 % NUM=1
Li 0.0 0.0 0.0 # Li4 % NUM=1
Li 0.0 0.0 0.0 # Li5 % NUM=1
Ni 0.0 0.0 0.0 # Ni1 % NUM=1
Ni 0.0 0.0 0.0 # Ni2 % NUM=1
Ni 0.0 0.0 0.0 # Ni3 % NUM=1
Ni 0.0 0.0 0.0 # Ni4 % NUM=1
Ni 0.0 0.0 0.0 # Ni5 % NUM=1
O 0.0 0.0 0.0 # O1 % NUM=1
O 0.0 0.0 0.0 # O2 % NUM=1
O 0.0 0.0 0.0 # O3 % NUM=1
O 0.0 0.0 0.0 # O4 % NUM=1
O 0.0 0.0 0.0 # O5 % NUM=1
%ENDBLOCK POSITIONS_FRAC

##SPECIES=Li,Ni,O
##NATOM=3-9
##FOCUS=3
 
#SYMMOPS=2-4
##SGRANK=20
#NFORM=1
##ADJGEN=0-1
#SLACK=0.25
#OVERLAP=0.1
#MINSEP=1-3 AUTO
#COMPACT
#CELLADAPT
#CONS=0.4
##SYSTEM={Rhom,Tric,Mono,Cubi,Hexa,Orth,Tetra}
 
KPOINTS_MP_SPACING 0.07
 
SYMMETRY_GENERATE
SNAP_TO_SYMMETRY
 
%BLOCK SPECIES_POT
QC5
%ENDBLOCK SPECIES_POT
 
%BLOCK EXTERNAL_PRESSURE
0 0 0
0 0
0
%ENDBLOCK EXTERNAL_PRESSURE
