%BLOCK LATTICE_CART
2.154433 0 0
0 2.154433 0
0 0 2.154433
%ENDBLOCK LATTICE_CART

#VARVOL=10-30 

#SPECIES={H,Li,Be,B,C,N,O,F,Na,Mg,Al,Si,P,S,Cl,K,Ca,Sc,Ti,V,Cr,Mn,Fe,Co,Ni,Cu,Zn,Ga,Ge,As,Se,Br,Rb,Sr,Y,Zr,Nb,Mo,Ru,Rh,Pd,Ag,Cd,In,Sn,Sb,Te,I,Cs,Ba,La,Ce,Yb,Lu,Hf,Ta,W,Re,Os,Ir,Pt,Au,Hg,Tl,Pb,Bi}
#NATOM=3-9
#FOCUS=1

#BREAKAMP=0.2
#SYMMOPS=1-48
##SGRANK=20
#NFORM=1
##ADJGEN=0-1
#SLACK=0.25
#OVERLAP=0.1
#MINSEP=2-3
#COMPACT
#CELLADAPT
#CONS=0.4
##SYSTEM={Rhom,Tric,Mono,Cubi,Hexa,Orth,Tetra}
 
KPOINTS_MP_SPACING 0.07
 
SYMMETRY_GENERATE
SNAP_TO_SYMMETRY
 
%BLOCK SPECIES_POT
QC5
%ENDBLOCK SPECIES_POT
 
%BLOCK EXTERNAL_PRESSURE
0 0 0
0 0
0
%ENDBLOCK EXTERNAL_PRESSURE
