%BLOCK LATTICE_CART
2.154433 0 0
0 2.154433 0
0 0 2.154433
%ENDBLOCK LATTICE_CART

#VARVOL=10-30 

#SPECIES={Li,Ni.O}
#NATOM=3-9
#FOCUS=1

#BREAKAMP=0.2

#SYMMOPS=1-48
##SGRANK=20
#NFORM=1
##ADJGEN=0-1
#SLACK=0.25
#OVERLAP=0.1
#MINSEP=1.22-3
#COMPACT
#CELLADAPT
#CONS=0.4
##SYSTEM={Rhom,Tric,Mono,Cubi,Hexa,Orth,Tetra}
 
KPOINTS_MP_SPACING 0.07
 
SYMMETRY_GENERATE
SNAP_TO_SYMMETRY
 
%BLOCK SPECIES_POT
QC5
%ENDBLOCK SPECIES_POT
 
%BLOCK EXTERNAL_PRESSURE
0 0 0
0 0
0
%ENDBLOCK EXTERNAL_PRESSURE
